p edge 52 121
e 1 4
e 1 29
e 1 40
e 1 42
e 1 45
e 2 5
e 2 14
e 2 30
e 3 4
e 3 14
e 3 19
e 3 24
e 3 25
e 3 31
e 3 36
e 4 42
e 5 43
e 6 17
e 6 30
e 6 31
e 6 34
e 6 40
e 6 43
e 6 49
e 6 52
e 7 19
e 7 21
e 7 27
e 7 29
e 7 41
e 7 51
e 8 16
e 8 17
e 8 24
e 8 44
e 8 52
e 9 15
e 9 18
e 9 21
e 9 22
e 9 28
e 9 29
e 9 46
e 9 48
e 10 29
e 11 12
e 11 36
e 11 44
e 11 45
e 12 18
e 12 19
e 12 32
e 12 34
e 12 37
e 12 47
e 13 16
e 13 25
e 13 35
e 13 40
e 13 51
e 14 20
e 14 41
e 15 22
e 15 46
e 15 49
e 16 27
e 16 40
e 16 44
e 17 19
e 17 29
e 17 38
e 18 31
e 18 36
e 18 38
e 19 23
e 19 39
e 19 43
e 20 21
e 20 29
e 20 36
e 20 47
e 21 22
e 21 26
e 21 31
e 21 40
e 21 45
e 21 50
e 22 31
e 22 44
e 22 46
e 25 34
e 25 39
e 25 40
e 25 47
e 27 33
e 27 34
e 27 41
e 27 47
e 27 48
e 27 49
e 28 33
e 28 38
e 28 46
e 29 40
e 32 37
e 33 47
e 34 41
e 35 37
e 35 45
e 35 48
e 38 52
e 39 46
e 40 42
e 40 45
e 40 48
e 44 46
e 44 51
e 44 52
e 45 46
e 46 49
e 50 51
